NAME: random-13-2068
TYPE: TSP
COMMENT: size=13 seed=2068
DIMENSION: 28
EDGE_WEIGHT_TYPE: EUC_2D
NODE_COORD_SECTION
+0 876 948
-0 876 948
+1 893 52
-1 233 963
+2 376 208
-2 849 342
+3 910 919
-3 946 739
+4 847 867
-4 696 330
+5 243 752
-5 166 848
+6 477 861
-6 802 160
+7 68 630
-7 942 496
+8 142 750
-8 346 378
+9 296 224
-9 669 343
+10 786 639
-10 106 469
+11 471 610
-11 522 825
+12 931 682
-12 573 815
+13 467 696
-13 350 752
PRECEDENCE_SECTION
+0 -0
+1 -1
+2 -2
+3 -3
+4 -4
+5 -5
+6 -6
+7 -7
+8 -8
+9 -9
+10 -10
+11 -11
+12 -12
+13 -13
EOF
